(declare-fun sea.sp0_0 () (_ BitVec 32))
(declare-fun main@%_169_0 () (_ BitVec 32))
(declare-fun main@%_320_0 () (_ BitVec 32))
(declare-fun main@%sm1153_0 () (Array (_ BitVec 32) (_ BitVec 32)))
(declare-fun main@%_25_0 () (_ BitVec 32))
(declare-fun main@%_472_0 () (_ BitVec 32))
(declare-fun main@%_1232_0 () (_ BitVec 32))
(declare-fun main@%_1080_0 () (_ BitVec 32))
(declare-fun main@%_1384_0 () (_ BitVec 32))
(declare-fun main@%_928_0 () (_ BitVec 32))
(declare-fun main@%_624_0 () (_ BitVec 32))
(declare-fun main@%_776_0 () (_ BitVec 32))

(assert (let ((a!1 (ite (bvsle #x00000004 main@%_25_0)
                #x00000002
                (ite (bvsle #x00000002 main@%_25_0)
                     (ite (= main@%_25_0 #x00000002) #xffffffff #x00000000)
                     (ite (= main@%_25_0 #x00000001) #xffffffff #x00000002))))
      (a!2 (ite (bvsle #x00000006 main@%_25_0)
                (ite (bvsle #x00000007 main@%_25_0)
                     #x00000000
                     (ite (= main@%_25_0 #x00000006) #x00000001 #x00000000))
                #x00000000))
      (a!3 (ite (bvsle #x00000002 main@%_25_0)
                (ite (= main@%_25_0 #x00000002) #x00000002 #x00000000)
                (ite (= main@%_25_0 #x00000001) #x00000002 #x00000000)))
      (a!6 (ite (and (bvule (bvadd #xfffffff0 sea.sp0_0)
                            (bvadd #xffffffdc sea.sp0_0))
                     (bvule (bvadd #xffffffdc sea.sp0_0)
                            (bvadd #xfffffffc sea.sp0_0)))
                #x00000000
                #x00000002))
      (a!11 (ite (and (bvule (bvadd #xfffffff0 sea.sp0_0)
                             (bvadd #xffffffec sea.sp0_0))
                      (bvule (bvadd #xffffffec sea.sp0_0)
                             (bvadd #xfffffffc sea.sp0_0)))
                 #x00000000
                 #x00000002))
      (a!14 (ite (and (bvule (bvadd #xfffffff0 sea.sp0_0)
                             (bvadd #xfffffff8 sea.sp0_0))
                      (bvule (bvadd #xfffffff8 sea.sp0_0)
                             (bvadd #xfffffffc sea.sp0_0)))
                 #x00000000
                 (select main@%sm1153_0 (bvadd #xfffffff8 sea.sp0_0))))
      (a!17 (ite (and (bvule (bvadd #xfffffff0 sea.sp0_0)
                             (bvadd #xffffffe8 sea.sp0_0))
                      (bvule (bvadd #xffffffe8 sea.sp0_0)
                             (bvadd #xfffffffc sea.sp0_0)))
                 #x00000000
                 #x00000002))
      (a!21 (ite (bvule (bvadd #xfffffff0 sea.sp0_0)
                        (bvadd #xfffffffc sea.sp0_0))
                 #x00000000
                 (select main@%sm1153_0 (bvadd #xfffffff0 sea.sp0_0)))))
(let ((a!4 (= (bvmul #x00000004 (ite (bvsle #x00000004 main@%_25_0) a!2 a!3))
              #x00000000))
      (a!5 (ite (bvsle #x00000004 main@%_25_0)
                (ite (bvsle #x00000006 main@%_25_0)
                     #x00000000
                     (ite (= main@%_25_0 #x00000005) #x00000000 #x00000001))
                a!3))
      (a!7 (ite (bvsle #x00000004 main@%_25_0)
                a!6
                (ite (bvsle #x00000002 main@%_25_0)
                     (ite (= main@%_25_0 #x00000002) #xffffffff #x00000000)
                     (ite (= main@%_25_0 #x00000001) #xffffffff a!6))))
      (a!9 (ite (= main@%_169_0 #x00000006)
                (bvadd #x00000001 (ite (bvsle #x00000004 main@%_25_0) a!2 a!3))
                (ite (bvsle #x00000004 main@%_25_0) a!2 a!3)))
      (a!12 (ite (bvsle #x00000004 main@%_25_0)
                 a!11
                 (ite (bvsle #x00000002 main@%_25_0)
                      (ite (= main@%_25_0 #x00000002) #x00000002 a!11)
                      (ite (= main@%_25_0 #x00000001) #x00000002 a!11))))
      (a!13 (= (bvmul #x00000004 (ite (bvsle #x00000004 main@%_25_0) a!2 a!3))
               #x0000001c))
      (a!15 (ite (bvsle #x00000006 main@%_25_0)
                 (ite (bvsle #x00000007 main@%_25_0)
                      a!14
                      (ite (= main@%_25_0 #x00000006) #x00000001 a!14))
                 a!14))
      (a!20 (= (bvmul #x00000004 (ite (bvsle #x00000004 main@%_25_0) a!2 a!3))
               #x00000014))
      (a!22 (ite (bvsle #x00000004 main@%_25_0)
                 (ite (bvsle #x00000006 main@%_25_0)
                      a!21
                      (ite (= main@%_25_0 #x00000005) a!21 #x00000001))
                 (ite (bvsle #x00000002 main@%_25_0)
                      (ite (= main@%_25_0 #x00000002) #x00000002 a!21)
                      (ite (= main@%_25_0 #x00000001) #x00000002 a!21))))
      (a!28 (= (bvmul #x00000004 (ite (bvsle #x00000004 main@%_25_0) a!2 a!3))
               #x00000010))
      (a!33 (= (bvmul #x00000004 (ite (bvsle #x00000004 main@%_25_0) a!2 a!3))
               #x0000000c)))
(let ((a!8 (ite (bvsle #x00000004 main@%_169_0)
                a!1
                (ite (bvsle #x00000002 main@%_169_0)
                     (ite (= main@%_169_0 #x00000002)
                          #xffffffff
                          (ite a!4 a!5 a!7))
                     (ite (= main@%_169_0 #x00000001) #xffffffff a!1))))
      (a!10 (ite (bvsle #x00000006 main@%_169_0)
                 (ite (bvsle #x00000007 main@%_169_0)
                      (ite (bvsle #x00000004 main@%_25_0) a!2 a!3)
                      a!9)
                 (ite (bvsle #x00000004 main@%_25_0) a!2 a!3)))
      (a!16 (ite (bvsle #x00000004 main@%_25_0)
                 a!15
                 (ite (bvsle #x00000002 main@%_25_0)
                      (ite (= main@%_25_0 #x00000002) #x00000002 a!14)
                      (ite (= main@%_25_0 #x00000001) #x00000002 a!14))))
      (a!23 (ite (bvsle #x00000004 main@%_169_0)
                 (ite (bvsle #x00000006 main@%_169_0)
                      a!5
                      (ite (= main@%_169_0 #x00000005)
                           a!5
                           (bvadd #x00000001 a!5)))
                 (ite (bvsle #x00000002 main@%_169_0)
                      (ite (= main@%_169_0 #x00000002) a!17 (ite a!20 a!5 a!22))
                      (ite (= main@%_169_0 #x00000001) a!12 a!5))))
      (a!24 (ite (bvsle #x00000004 main@%_169_0)
                 a!7
                 (ite (bvsle #x00000002 main@%_169_0)
                      (ite (= main@%_169_0 #x00000002)
                           #xffffffff
                           (ite a!4 a!5 a!7))
                      (ite (= main@%_169_0 #x00000001) #xffffffff a!7))))
      (a!29 (ite (bvsle #x00000004 main@%_169_0)
                 a!12
                 (ite (bvsle #x00000002 main@%_169_0)
                      (ite (= main@%_169_0 #x00000002) a!17 (ite a!28 a!5 a!12))
                      (ite (= main@%_169_0 #x00000001) a!17 a!12))))
      (a!34 (ite (bvsle #x00000004 main@%_169_0)
                 a!17
                 (ite (bvsle #x00000002 main@%_169_0)
                      (ite (= main@%_169_0 #x00000002) a!17 (ite a!33 a!5 a!17))
                      a!17)))
      (a!38 (ite (bvsle #x00000004 main@%_169_0)
                 (ite (bvsle #x00000006 main@%_169_0)
                      a!22
                      (ite (= main@%_169_0 #x00000005)
                           a!22
                           (bvadd #x00000001 a!5)))
                 (ite (bvsle #x00000002 main@%_169_0)
                      (ite (= main@%_169_0 #x00000002) a!17 (ite a!20 a!5 a!22))
                      (ite (= main@%_169_0 #x00000001) a!12 a!22)))))
(let ((a!18 (ite (bvsle #x00000002 main@%_169_0)
                 (ite (= main@%_169_0 #x00000002) a!12 (ite a!13 a!5 a!16))
                 (ite (= main@%_169_0 #x00000001)
                      a!17
                      (ite (bvsle #x00000004 main@%_25_0) a!2 a!3))))
      (a!31 (ite (= main@%_169_0 #x00000006)
                 (bvadd #x00000001 (ite (bvsle #x00000004 main@%_25_0) a!2 a!3))
                 a!16)))
(let ((a!19 (= (bvmul #x00000004
                      (ite (bvsle #x00000004 main@%_169_0) a!10 a!18))
               #x00000000))
      (a!26 (ite (= main@%_320_0 #x00000006)
                 (bvadd #x00000001
                        (ite (bvsle #x00000004 main@%_169_0) a!10 a!18))
                 (ite (bvsle #x00000004 main@%_169_0) a!10 a!18)))
      (a!30 (= (bvmul #x00000004
                      (ite (bvsle #x00000004 main@%_169_0) a!10 a!18))
               #x0000001c))
      (a!32 (ite (bvsle #x00000004 main@%_169_0)
                 (ite (bvsle #x00000006 main@%_169_0)
                      (ite (bvsle #x00000007 main@%_169_0) a!16 a!31)
                      a!16)
                 (ite (bvsle #x00000002 main@%_169_0)
                      (ite (= main@%_169_0 #x00000002) a!12 (ite a!13 a!5 a!16))
                      (ite (= main@%_169_0 #x00000001) a!17 a!16))))
      (a!37 (= (bvmul #x00000004
                      (ite (bvsle #x00000004 main@%_169_0) a!10 a!18))
               #x00000014))
      (a!44 (= (bvmul #x00000004
                      (ite (bvsle #x00000004 main@%_169_0) a!10 a!18))
               #x00000010))
      (a!49 (= (bvmul #x00000004
                      (ite (bvsle #x00000004 main@%_169_0) a!10 a!18))
               #x0000000c)))
(let ((a!25 (ite (bvsle #x00000004 main@%_320_0)
                 a!8
                 (ite (bvsle #x00000002 main@%_320_0)
                      (ite (= main@%_320_0 #x00000002)
                           #xffffffff
                           (ite a!19 a!23 a!24))
                      (ite (= main@%_320_0 #x00000001) #xffffffff a!8))))
      (a!27 (ite (bvsle #x00000006 main@%_320_0)
                 (ite (bvsle #x00000007 main@%_320_0)
                      (ite (bvsle #x00000004 main@%_169_0) a!10 a!18)
                      a!26)
                 (ite (bvsle #x00000004 main@%_169_0) a!10 a!18)))
      (a!35 (ite (bvsle #x00000002 main@%_320_0)
                 (ite (= main@%_320_0 #x00000002) a!29 (ite a!30 a!23 a!32))
                 (ite (= main@%_320_0 #x00000001)
                      a!34
                      (ite (bvsle #x00000004 main@%_169_0) a!10 a!18))))
      (a!39 (ite (bvsle #x00000004 main@%_320_0)
                 (ite (bvsle #x00000006 main@%_320_0)
                      a!23
                      (ite (= main@%_320_0 #x00000005)
                           a!23
                           (bvadd #x00000001 a!23)))
                 (ite (bvsle #x00000002 main@%_320_0)
                      (ite (= main@%_320_0 #x00000002)
                           a!34
                           (ite a!37 a!23 a!38))
                      (ite (= main@%_320_0 #x00000001) a!29 a!23))))
      (a!40 (ite (bvsle #x00000004 main@%_320_0)
                 a!24
                 (ite (bvsle #x00000002 main@%_320_0)
                      (ite (= main@%_320_0 #x00000002)
                           #xffffffff
                           (ite a!19 a!23 a!24))
                      (ite (= main@%_320_0 #x00000001) #xffffffff a!24))))
      (a!45 (ite (bvsle #x00000004 main@%_320_0)
                 a!29
                 (ite (bvsle #x00000002 main@%_320_0)
                      (ite (= main@%_320_0 #x00000002)
                           a!34
                           (ite a!44 a!23 a!29))
                      (ite (= main@%_320_0 #x00000001) a!34 a!29))))
      (a!47 (ite (= main@%_320_0 #x00000006)
                 (bvadd #x00000001
                        (ite (bvsle #x00000004 main@%_169_0) a!10 a!18))
                 a!32))
      (a!50 (ite (bvsle #x00000004 main@%_320_0)
                 a!34
                 (ite (bvsle #x00000002 main@%_320_0)
                      (ite (= main@%_320_0 #x00000002)
                           a!34
                           (ite a!49 a!23 a!34))
                      a!34)))
      (a!54 (ite (bvsle #x00000004 main@%_320_0)
                 (ite (bvsle #x00000006 main@%_320_0)
                      a!38
                      (ite (= main@%_320_0 #x00000005)
                           a!38
                           (bvadd #x00000001 a!23)))
                 (ite (bvsle #x00000002 main@%_320_0)
                      (ite (= main@%_320_0 #x00000002)
                           a!34
                           (ite a!37 a!23 a!38))
                      (ite (= main@%_320_0 #x00000001) a!29 a!38)))))
(let ((a!36 (= (bvmul #x00000004
                      (ite (bvsle #x00000004 main@%_320_0) a!27 a!35))
               #x00000000))
      (a!42 (ite (= main@%_472_0 #x00000006)
                 (bvadd #x00000001
                        (ite (bvsle #x00000004 main@%_320_0) a!27 a!35))
                 (ite (bvsle #x00000004 main@%_320_0) a!27 a!35)))
      (a!46 (= (bvmul #x00000004
                      (ite (bvsle #x00000004 main@%_320_0) a!27 a!35))
               #x0000001c))
      (a!48 (ite (bvsle #x00000004 main@%_320_0)
                 (ite (bvsle #x00000006 main@%_320_0)
                      (ite (bvsle #x00000007 main@%_320_0) a!32 a!47)
                      a!32)
                 (ite (bvsle #x00000002 main@%_320_0)
                      (ite (= main@%_320_0 #x00000002)
                           a!29
                           (ite a!30 a!23 a!32))
                      (ite (= main@%_320_0 #x00000001) a!34 a!32))))
      (a!53 (= (bvmul #x00000004
                      (ite (bvsle #x00000004 main@%_320_0) a!27 a!35))
               #x00000014))
      (a!60 (= (bvmul #x00000004
                      (ite (bvsle #x00000004 main@%_320_0) a!27 a!35))
               #x00000010))
      (a!65 (= (bvmul #x00000004
                      (ite (bvsle #x00000004 main@%_320_0) a!27 a!35))
               #x0000000c)))
(let ((a!41 (ite (bvsle #x00000004 main@%_472_0)
                 a!25
                 (ite (bvsle #x00000002 main@%_472_0)
                      (ite (= main@%_472_0 #x00000002)
                           #xffffffff
                           (ite a!36 a!39 a!40))
                      (ite (= main@%_472_0 #x00000001) #xffffffff a!25))))
      (a!43 (ite (bvsle #x00000006 main@%_472_0)
                 (ite (bvsle #x00000007 main@%_472_0)
                      (ite (bvsle #x00000004 main@%_320_0) a!27 a!35)
                      a!42)
                 (ite (bvsle #x00000004 main@%_320_0) a!27 a!35)))
      (a!51 (ite (bvsle #x00000002 main@%_472_0)
                 (ite (= main@%_472_0 #x00000002) a!45 (ite a!46 a!39 a!48))
                 (ite (= main@%_472_0 #x00000001)
                      a!50
                      (ite (bvsle #x00000004 main@%_320_0) a!27 a!35))))
      (a!55 (ite (bvsle #x00000004 main@%_472_0)
                 (ite (bvsle #x00000006 main@%_472_0)
                      a!39
                      (ite (= main@%_472_0 #x00000005)
                           a!39
                           (bvadd #x00000001 a!39)))
                 (ite (bvsle #x00000002 main@%_472_0)
                      (ite (= main@%_472_0 #x00000002)
                           a!50
                           (ite a!53 a!39 a!54))
                      (ite (= main@%_472_0 #x00000001) a!45 a!39))))
      (a!56 (ite (bvsle #x00000004 main@%_472_0)
                 a!40
                 (ite (bvsle #x00000002 main@%_472_0)
                      (ite (= main@%_472_0 #x00000002)
                           #xffffffff
                           (ite a!36 a!39 a!40))
                      (ite (= main@%_472_0 #x00000001) #xffffffff a!40))))
      (a!61 (ite (bvsle #x00000004 main@%_472_0)
                 a!45
                 (ite (bvsle #x00000002 main@%_472_0)
                      (ite (= main@%_472_0 #x00000002)
                           a!50
                           (ite a!60 a!39 a!45))
                      (ite (= main@%_472_0 #x00000001) a!50 a!45))))
      (a!63 (ite (= main@%_472_0 #x00000006)
                 (bvadd #x00000001
                        (ite (bvsle #x00000004 main@%_320_0) a!27 a!35))
                 a!48))
      (a!66 (ite (bvsle #x00000004 main@%_472_0)
                 a!50
                 (ite (bvsle #x00000002 main@%_472_0)
                      (ite (= main@%_472_0 #x00000002)
                           a!50
                           (ite a!65 a!39 a!50))
                      a!50)))
      (a!70 (ite (bvsle #x00000004 main@%_472_0)
                 (ite (bvsle #x00000006 main@%_472_0)
                      a!54
                      (ite (= main@%_472_0 #x00000005)
                           a!54
                           (bvadd #x00000001 a!39)))
                 (ite (bvsle #x00000002 main@%_472_0)
                      (ite (= main@%_472_0 #x00000002)
                           a!50
                           (ite a!53 a!39 a!54))
                      (ite (= main@%_472_0 #x00000001) a!45 a!54)))))
(let ((a!52 (= (bvmul #x00000004
                      (ite (bvsle #x00000004 main@%_472_0) a!43 a!51))
               #x00000000))
      (a!58 (ite (= main@%_624_0 #x00000006)
                 (bvadd #x00000001
                        (ite (bvsle #x00000004 main@%_472_0) a!43 a!51))
                 (ite (bvsle #x00000004 main@%_472_0) a!43 a!51)))
      (a!62 (= (bvmul #x00000004
                      (ite (bvsle #x00000004 main@%_472_0) a!43 a!51))
               #x0000001c))
      (a!64 (ite (bvsle #x00000004 main@%_472_0)
                 (ite (bvsle #x00000006 main@%_472_0)
                      (ite (bvsle #x00000007 main@%_472_0) a!48 a!63)
                      a!48)
                 (ite (bvsle #x00000002 main@%_472_0)
                      (ite (= main@%_472_0 #x00000002)
                           a!45
                           (ite a!46 a!39 a!48))
                      (ite (= main@%_472_0 #x00000001) a!50 a!48))))
      (a!69 (= (bvmul #x00000004
                      (ite (bvsle #x00000004 main@%_472_0) a!43 a!51))
               #x00000014))
      (a!76 (= (bvmul #x00000004
                      (ite (bvsle #x00000004 main@%_472_0) a!43 a!51))
               #x00000010))
      (a!81 (= (bvmul #x00000004
                      (ite (bvsle #x00000004 main@%_472_0) a!43 a!51))
               #x0000000c)))
(let ((a!57 (ite (bvsle #x00000004 main@%_624_0)
                 a!41
                 (ite (bvsle #x00000002 main@%_624_0)
                      (ite (= main@%_624_0 #x00000002)
                           #xffffffff
                           (ite a!52 a!55 a!56))
                      (ite (= main@%_624_0 #x00000001) #xffffffff a!41))))
      (a!59 (ite (bvsle #x00000006 main@%_624_0)
                 (ite (bvsle #x00000007 main@%_624_0)
                      (ite (bvsle #x00000004 main@%_472_0) a!43 a!51)
                      a!58)
                 (ite (bvsle #x00000004 main@%_472_0) a!43 a!51)))
      (a!67 (ite (bvsle #x00000002 main@%_624_0)
                 (ite (= main@%_624_0 #x00000002) a!61 (ite a!62 a!55 a!64))
                 (ite (= main@%_624_0 #x00000001)
                      a!66
                      (ite (bvsle #x00000004 main@%_472_0) a!43 a!51))))
      (a!71 (ite (bvsle #x00000004 main@%_624_0)
                 (ite (bvsle #x00000006 main@%_624_0)
                      a!55
                      (ite (= main@%_624_0 #x00000005)
                           a!55
                           (bvadd #x00000001 a!55)))
                 (ite (bvsle #x00000002 main@%_624_0)
                      (ite (= main@%_624_0 #x00000002)
                           a!66
                           (ite a!69 a!55 a!70))
                      (ite (= main@%_624_0 #x00000001) a!61 a!55))))
      (a!72 (ite (bvsle #x00000004 main@%_624_0)
                 a!56
                 (ite (bvsle #x00000002 main@%_624_0)
                      (ite (= main@%_624_0 #x00000002)
                           #xffffffff
                           (ite a!52 a!55 a!56))
                      (ite (= main@%_624_0 #x00000001) #xffffffff a!56))))
      (a!77 (ite (bvsle #x00000004 main@%_624_0)
                 a!61
                 (ite (bvsle #x00000002 main@%_624_0)
                      (ite (= main@%_624_0 #x00000002)
                           a!66
                           (ite a!76 a!55 a!61))
                      (ite (= main@%_624_0 #x00000001) a!66 a!61))))
      (a!79 (ite (= main@%_624_0 #x00000006)
                 (bvadd #x00000001
                        (ite (bvsle #x00000004 main@%_472_0) a!43 a!51))
                 a!64))
      (a!82 (ite (bvsle #x00000004 main@%_624_0)
                 a!66
                 (ite (bvsle #x00000002 main@%_624_0)
                      (ite (= main@%_624_0 #x00000002)
                           a!66
                           (ite a!81 a!55 a!66))
                      a!66)))
      (a!86 (ite (bvsle #x00000004 main@%_624_0)
                 (ite (bvsle #x00000006 main@%_624_0)
                      a!70
                      (ite (= main@%_624_0 #x00000005)
                           a!70
                           (bvadd #x00000001 a!55)))
                 (ite (bvsle #x00000002 main@%_624_0)
                      (ite (= main@%_624_0 #x00000002)
                           a!66
                           (ite a!69 a!55 a!70))
                      (ite (= main@%_624_0 #x00000001) a!61 a!70)))))
(let ((a!68 (= (bvmul #x00000004
                      (ite (bvsle #x00000004 main@%_624_0) a!59 a!67))
               #x00000000))
      (a!74 (ite (= main@%_776_0 #x00000006)
                 (bvadd #x00000001
                        (ite (bvsle #x00000004 main@%_624_0) a!59 a!67))
                 (ite (bvsle #x00000004 main@%_624_0) a!59 a!67)))
      (a!78 (= (bvmul #x00000004
                      (ite (bvsle #x00000004 main@%_624_0) a!59 a!67))
               #x0000001c))
      (a!80 (ite (bvsle #x00000004 main@%_624_0)
                 (ite (bvsle #x00000006 main@%_624_0)
                      (ite (bvsle #x00000007 main@%_624_0) a!64 a!79)
                      a!64)
                 (ite (bvsle #x00000002 main@%_624_0)
                      (ite (= main@%_624_0 #x00000002)
                           a!61
                           (ite a!62 a!55 a!64))
                      (ite (= main@%_624_0 #x00000001) a!66 a!64))))
      (a!85 (= (bvmul #x00000004
                      (ite (bvsle #x00000004 main@%_624_0) a!59 a!67))
               #x00000014))
      (a!92 (= (bvmul #x00000004
                      (ite (bvsle #x00000004 main@%_624_0) a!59 a!67))
               #x00000010))
      (a!97 (= (bvmul #x00000004
                      (ite (bvsle #x00000004 main@%_624_0) a!59 a!67))
               #x0000000c)))
(let ((a!73 (ite (bvsle #x00000004 main@%_776_0)
                 a!57
                 (ite (bvsle #x00000002 main@%_776_0)
                      (ite (= main@%_776_0 #x00000002)
                           #xffffffff
                           (ite a!68 a!71 a!72))
                      (ite (= main@%_776_0 #x00000001) #xffffffff a!57))))
      (a!75 (ite (bvsle #x00000006 main@%_776_0)
                 (ite (bvsle #x00000007 main@%_776_0)
                      (ite (bvsle #x00000004 main@%_624_0) a!59 a!67)
                      a!74)
                 (ite (bvsle #x00000004 main@%_624_0) a!59 a!67)))
      (a!83 (ite (bvsle #x00000002 main@%_776_0)
                 (ite (= main@%_776_0 #x00000002) a!77 (ite a!78 a!71 a!80))
                 (ite (= main@%_776_0 #x00000001)
                      a!82
                      (ite (bvsle #x00000004 main@%_624_0) a!59 a!67))))
      (a!87 (ite (bvsle #x00000004 main@%_776_0)
                 (ite (bvsle #x00000006 main@%_776_0)
                      a!71
                      (ite (= main@%_776_0 #x00000005)
                           a!71
                           (bvadd #x00000001 a!71)))
                 (ite (bvsle #x00000002 main@%_776_0)
                      (ite (= main@%_776_0 #x00000002)
                           a!82
                           (ite a!85 a!71 a!86))
                      (ite (= main@%_776_0 #x00000001) a!77 a!71))))
      (a!88 (ite (bvsle #x00000004 main@%_776_0)
                 a!72
                 (ite (bvsle #x00000002 main@%_776_0)
                      (ite (= main@%_776_0 #x00000002)
                           #xffffffff
                           (ite a!68 a!71 a!72))
                      (ite (= main@%_776_0 #x00000001) #xffffffff a!72))))
      (a!93 (ite (bvsle #x00000004 main@%_776_0)
                 a!77
                 (ite (bvsle #x00000002 main@%_776_0)
                      (ite (= main@%_776_0 #x00000002)
                           a!82
                           (ite a!92 a!71 a!77))
                      (ite (= main@%_776_0 #x00000001) a!82 a!77))))
      (a!95 (ite (= main@%_776_0 #x00000006)
                 (bvadd #x00000001
                        (ite (bvsle #x00000004 main@%_624_0) a!59 a!67))
                 a!80))
      (a!98 (ite (bvsle #x00000004 main@%_776_0)
                 a!82
                 (ite (bvsle #x00000002 main@%_776_0)
                      (ite (= main@%_776_0 #x00000002)
                           a!82
                           (ite a!97 a!71 a!82))
                      a!82)))
      (a!102 (ite (bvsle #x00000004 main@%_776_0)
                  (ite (bvsle #x00000006 main@%_776_0)
                       a!86
                       (ite (= main@%_776_0 #x00000005)
                            a!86
                            (bvadd #x00000001 a!71)))
                  (ite (bvsle #x00000002 main@%_776_0)
                       (ite (= main@%_776_0 #x00000002)
                            a!82
                            (ite a!85 a!71 a!86))
                       (ite (= main@%_776_0 #x00000001) a!77 a!86)))))
(let ((a!84 (= (bvmul #x00000004
                      (ite (bvsle #x00000004 main@%_776_0) a!75 a!83))
               #x00000000))
      (a!90 (ite (= main@%_928_0 #x00000006)
                 (bvadd #x00000001
                        (ite (bvsle #x00000004 main@%_776_0) a!75 a!83))
                 (ite (bvsle #x00000004 main@%_776_0) a!75 a!83)))
      (a!94 (= (bvmul #x00000004
                      (ite (bvsle #x00000004 main@%_776_0) a!75 a!83))
               #x0000001c))
      (a!96 (ite (bvsle #x00000004 main@%_776_0)
                 (ite (bvsle #x00000006 main@%_776_0)
                      (ite (bvsle #x00000007 main@%_776_0) a!80 a!95)
                      a!80)
                 (ite (bvsle #x00000002 main@%_776_0)
                      (ite (= main@%_776_0 #x00000002)
                           a!77
                           (ite a!78 a!71 a!80))
                      (ite (= main@%_776_0 #x00000001) a!82 a!80))))
      (a!101 (= (bvmul #x00000004
                       (ite (bvsle #x00000004 main@%_776_0) a!75 a!83))
                #x00000014))
      (a!108 (= (bvmul #x00000004
                       (ite (bvsle #x00000004 main@%_776_0) a!75 a!83))
                #x00000010))
      (a!113 (= (bvmul #x00000004
                       (ite (bvsle #x00000004 main@%_776_0) a!75 a!83))
                #x0000000c)))
(let ((a!89 (ite (bvsle #x00000004 main@%_928_0)
                 a!73
                 (ite (bvsle #x00000002 main@%_928_0)
                      (ite (= main@%_928_0 #x00000002)
                           #xffffffff
                           (ite a!84 a!87 a!88))
                      (ite (= main@%_928_0 #x00000001) #xffffffff a!73))))
      (a!91 (ite (bvsle #x00000006 main@%_928_0)
                 (ite (bvsle #x00000007 main@%_928_0)
                      (ite (bvsle #x00000004 main@%_776_0) a!75 a!83)
                      a!90)
                 (ite (bvsle #x00000004 main@%_776_0) a!75 a!83)))
      (a!99 (ite (bvsle #x00000002 main@%_928_0)
                 (ite (= main@%_928_0 #x00000002) a!93 (ite a!94 a!87 a!96))
                 (ite (= main@%_928_0 #x00000001)
                      a!98
                      (ite (bvsle #x00000004 main@%_776_0) a!75 a!83))))
      (a!103 (ite (bvsle #x00000004 main@%_928_0)
                  (ite (bvsle #x00000006 main@%_928_0)
                       a!87
                       (ite (= main@%_928_0 #x00000005)
                            a!87
                            (bvadd #x00000001 a!87)))
                  (ite (bvsle #x00000002 main@%_928_0)
                       (ite (= main@%_928_0 #x00000002)
                            a!98
                            (ite a!101 a!87 a!102))
                       (ite (= main@%_928_0 #x00000001) a!93 a!87))))
      (a!104 (ite (bvsle #x00000004 main@%_928_0)
                  a!88
                  (ite (bvsle #x00000002 main@%_928_0)
                       (ite (= main@%_928_0 #x00000002)
                            #xffffffff
                            (ite a!84 a!87 a!88))
                       (ite (= main@%_928_0 #x00000001) #xffffffff a!88))))
      (a!109 (ite (bvsle #x00000004 main@%_928_0)
                  a!93
                  (ite (bvsle #x00000002 main@%_928_0)
                       (ite (= main@%_928_0 #x00000002)
                            a!98
                            (ite a!108 a!87 a!93))
                       (ite (= main@%_928_0 #x00000001) a!98 a!93))))
      (a!111 (ite (= main@%_928_0 #x00000006)
                  (bvadd #x00000001
                         (ite (bvsle #x00000004 main@%_776_0) a!75 a!83))
                  a!96))
      (a!114 (ite (bvsle #x00000004 main@%_928_0)
                  a!98
                  (ite (bvsle #x00000002 main@%_928_0)
                       (ite (= main@%_928_0 #x00000002)
                            a!98
                            (ite a!113 a!87 a!98))
                       a!98)))
      (a!118 (ite (bvsle #x00000004 main@%_928_0)
                  (ite (bvsle #x00000006 main@%_928_0)
                       a!102
                       (ite (= main@%_928_0 #x00000005)
                            a!102
                            (bvadd #x00000001 a!87)))
                  (ite (bvsle #x00000002 main@%_928_0)
                       (ite (= main@%_928_0 #x00000002)
                            a!98
                            (ite a!101 a!87 a!102))
                       (ite (= main@%_928_0 #x00000001) a!93 a!102)))))
(let ((a!100 (= (bvmul #x00000004
                       (ite (bvsle #x00000004 main@%_928_0) a!91 a!99))
                #x00000000))
      (a!106 (ite (= main@%_1080_0 #x00000006)
                  (bvadd #x00000001
                         (ite (bvsle #x00000004 main@%_928_0) a!91 a!99))
                  (ite (bvsle #x00000004 main@%_928_0) a!91 a!99)))
      (a!110 (= (bvmul #x00000004
                       (ite (bvsle #x00000004 main@%_928_0) a!91 a!99))
                #x0000001c))
      (a!112 (ite (bvsle #x00000004 main@%_928_0)
                  (ite (bvsle #x00000006 main@%_928_0)
                       (ite (bvsle #x00000007 main@%_928_0) a!96 a!111)
                       a!96)
                  (ite (bvsle #x00000002 main@%_928_0)
                       (ite (= main@%_928_0 #x00000002)
                            a!93
                            (ite a!94 a!87 a!96))
                       (ite (= main@%_928_0 #x00000001) a!98 a!96))))
      (a!117 (= (bvmul #x00000004
                       (ite (bvsle #x00000004 main@%_928_0) a!91 a!99))
                #x00000014))
      (a!124 (= (bvmul #x00000004
                       (ite (bvsle #x00000004 main@%_928_0) a!91 a!99))
                #x00000010))
      (a!129 (= (bvmul #x00000004
                       (ite (bvsle #x00000004 main@%_928_0) a!91 a!99))
                #x0000000c)))
(let ((a!105 (ite (bvsle #x00000004 main@%_1080_0)
                  a!89
                  (ite (bvsle #x00000002 main@%_1080_0)
                       (ite (= main@%_1080_0 #x00000002)
                            #xffffffff
                            (ite a!100 a!103 a!104))
                       (ite (= main@%_1080_0 #x00000001) #xffffffff a!89))))
      (a!107 (ite (bvsle #x00000006 main@%_1080_0)
                  (ite (bvsle #x00000007 main@%_1080_0)
                       (ite (bvsle #x00000004 main@%_928_0) a!91 a!99)
                       a!106)
                  (ite (bvsle #x00000004 main@%_928_0) a!91 a!99)))
      (a!115 (ite (bvsle #x00000002 main@%_1080_0)
                  (ite (= main@%_1080_0 #x00000002)
                       a!109
                       (ite a!110 a!103 a!112))
                  (ite (= main@%_1080_0 #x00000001)
                       a!114
                       (ite (bvsle #x00000004 main@%_928_0) a!91 a!99))))
      (a!119 (ite (bvsle #x00000004 main@%_1080_0)
                  (ite (bvsle #x00000006 main@%_1080_0)
                       a!103
                       (ite (= main@%_1080_0 #x00000005)
                            a!103
                            (bvadd #x00000001 a!103)))
                  (ite (bvsle #x00000002 main@%_1080_0)
                       (ite (= main@%_1080_0 #x00000002)
                            a!114
                            (ite a!117 a!103 a!118))
                       (ite (= main@%_1080_0 #x00000001) a!109 a!103))))
      (a!120 (ite (bvsle #x00000004 main@%_1080_0)
                  a!104
                  (ite (bvsle #x00000002 main@%_1080_0)
                       (ite (= main@%_1080_0 #x00000002)
                            #xffffffff
                            (ite a!100 a!103 a!104))
                       (ite (= main@%_1080_0 #x00000001) #xffffffff a!104))))
      (a!125 (ite (bvsle #x00000004 main@%_1080_0)
                  a!109
                  (ite (bvsle #x00000002 main@%_1080_0)
                       (ite (= main@%_1080_0 #x00000002)
                            a!114
                            (ite a!124 a!103 a!109))
                       (ite (= main@%_1080_0 #x00000001) a!114 a!109))))
      (a!127 (ite (= main@%_1080_0 #x00000006)
                  (bvadd #x00000001
                         (ite (bvsle #x00000004 main@%_928_0) a!91 a!99))
                  a!112))
      (a!130 (ite (bvsle #x00000004 main@%_1080_0)
                  a!114
                  (ite (bvsle #x00000002 main@%_1080_0)
                       (ite (= main@%_1080_0 #x00000002)
                            a!114
                            (ite a!129 a!103 a!114))
                       a!114)))
      (a!134 (ite (bvsle #x00000004 main@%_1080_0)
                  (ite (bvsle #x00000006 main@%_1080_0)
                       a!118
                       (ite (= main@%_1080_0 #x00000005)
                            a!118
                            (bvadd #x00000001 a!103)))
                  (ite (bvsle #x00000002 main@%_1080_0)
                       (ite (= main@%_1080_0 #x00000002)
                            a!114
                            (ite a!117 a!103 a!118))
                       (ite (= main@%_1080_0 #x00000001) a!109 a!118)))))
(let ((a!116 (= (bvmul #x00000004
                       (ite (bvsle #x00000004 main@%_1080_0) a!107 a!115))
                #x00000000))
      (a!122 (ite (= main@%_1232_0 #x00000006)
                  (bvadd #x00000001
                         (ite (bvsle #x00000004 main@%_1080_0) a!107 a!115))
                  (ite (bvsle #x00000004 main@%_1080_0) a!107 a!115)))
      (a!126 (= (bvmul #x00000004
                       (ite (bvsle #x00000004 main@%_1080_0) a!107 a!115))
                #x0000001c))
      (a!128 (ite (bvsle #x00000004 main@%_1080_0)
                  (ite (bvsle #x00000006 main@%_1080_0)
                       (ite (bvsle #x00000007 main@%_1080_0) a!112 a!127)
                       a!112)
                  (ite (bvsle #x00000002 main@%_1080_0)
                       (ite (= main@%_1080_0 #x00000002)
                            a!109
                            (ite a!110 a!103 a!112))
                       (ite (= main@%_1080_0 #x00000001) a!114 a!112))))
      (a!133 (= (bvmul #x00000004
                       (ite (bvsle #x00000004 main@%_1080_0) a!107 a!115))
                #x00000014)))
(let ((a!121 (ite (bvsle #x00000004 main@%_1232_0)
                  a!105
                  (ite (bvsle #x00000002 main@%_1232_0)
                       (ite (= main@%_1232_0 #x00000002)
                            #xffffffff
                            (ite a!116 a!119 a!120))
                       (ite (= main@%_1232_0 #x00000001) #xffffffff a!105))))
      (a!123 (ite (bvsle #x00000006 main@%_1232_0)
                  (ite (bvsle #x00000007 main@%_1232_0)
                       (ite (bvsle #x00000004 main@%_1080_0) a!107 a!115)
                       a!122)
                  (ite (bvsle #x00000004 main@%_1080_0) a!107 a!115)))
      (a!131 (ite (bvsle #x00000002 main@%_1232_0)
                  (ite (= main@%_1232_0 #x00000002)
                       a!125
                       (ite a!126 a!119 a!128))
                  (ite (= main@%_1232_0 #x00000001)
                       a!130
                       (ite (bvsle #x00000004 main@%_1080_0) a!107 a!115))))
      (a!135 (ite (bvsle #x00000004 main@%_1232_0)
                  (ite (bvsle #x00000006 main@%_1232_0)
                       a!119
                       (ite (= main@%_1232_0 #x00000005)
                            a!119
                            (bvadd #x00000001 a!119)))
                  (ite (bvsle #x00000002 main@%_1232_0)
                       (ite (= main@%_1232_0 #x00000002)
                            a!130
                            (ite a!133 a!119 a!134))
                       (ite (= main@%_1232_0 #x00000001) a!125 a!119))))
      (a!136 (ite (bvsle #x00000004 main@%_1232_0)
                  a!120
                  (ite (bvsle #x00000002 main@%_1232_0)
                       (ite (= main@%_1232_0 #x00000002)
                            #xffffffff
                            (ite a!116 a!119 a!120))
                       (ite (= main@%_1232_0 #x00000001) #xffffffff a!120)))))
(let ((a!132 (= (bvmul #x00000004
                       (ite (bvsle #x00000004 main@%_1232_0) a!123 a!131))
                #x00000000)))
(let ((a!137 (ite (bvsle #x00000004 main@%_1384_0)
                  a!121
                  (ite (bvsle #x00000002 main@%_1384_0)
                       (ite (= main@%_1384_0 #x00000002)
                            #xffffffff
                            (ite a!132 a!135 a!136))
                       (ite (= main@%_1384_0 #x00000001) #xffffffff a!121)))))
  (= a!137 #x00000004))))))))))))))))))))))
